c ren 1 -> 1
c ren 2 -> 2
c ren 3 -> 3
c ren 5 -> 4
c ren 6 -> 5
c ren 7 -> 6
c ren 10 -> 7
c ren 13 -> 8
c ren 16 -> 9
c ren 21 -> 10
c ren 23 -> 11
c ren 29 -> 12
c ren 30 -> 13
c ren 32 -> 14
c ren 36 -> 15
c ren 37 -> 16
c ren 40 -> 17
c ren 43 -> 18
c ren 46 -> 19
c ren 50 -> 20
c ren 57 -> 21
c ren 64 -> 22
c ren 68 -> 23
c ren 81 -> 24
c ren 90 -> 25
c ren 97 -> 26
c ren 103 -> 27
c ren 114 -> 28
c ren 126 -> 29
c ren 134 -> 30
c ren 135 -> 31
c ren 148 -> 32
c ren 162 -> 33
p cnf 33 104
a 1 4 5 6 7 9 10 11 12 13 14 16 18 19 21 22 27 28 29 31 32 33 0
d 2 21 22 0
d 23 1 4 0
d 24 9 13 0
d 25 10 12 0
d 26 16 18 0
d 30 28 29 0
e 3 8 15 17 20 0
-1 -2 3 0
1 2 3 0
-1 2 -3 0
1 -2 -3 0
-4 5 -8 0
-4 -5 6 7 8 0
-6 15 -17 -20 -23 0
4 -6 8 0
4 -5 6 7 -8 0
-7 15 -17 -20 -23 0
-5 6 7 15 -17 -20 21 22 23 0
-4 -6 -8 0
4 -7 8 0
4 5 8 0
8 15 0
-3 5 6 7 -8 -9 -10 11 -12 13 -14 -15 0
-3 -5 -6 -8 9 10 12 14 -15 0
-2 -5 6 7 15 -17 -20 -25 0
-3 -7 -8 9 10 -11 -12 13 -14 -15 0
-3 6 7 -8 -9 10 -11 12 14 -15 0
-3 6 7 -8 -9 10 -11 -12 13 -14 -15 0
-3 5 -6 -8 9 -10 11 -12 13 -14 -15 0
-3 6 7 -8 -9 10 -11 12 -13 -15 0
-3 5 -7 -8 9 -10 11 12 14 -15 0
-3 -6 -8 9 10 -11 12 14 -15 0
2 5 6 7 15 -17 19 -20 21 22 32 33 0
-3 -5 -6 -8 9 10 -12 13 -14 -15 0
-3 -6 -8 9 10 -11 12 -13 -15 0
-2 5 6 7 -11 15 -17 -20 -22 0
-2 6 7 -11 15 -17 -20 -25 0
-3 5 -7 -8 9 -10 11 -12 13 -14 -15 0
-3 -5 -7 -8 9 10 12 -13 -15 0
-3 -5 -7 -8 9 10 12 14 -15 0
-3 -7 -8 9 10 -11 12 -13 -15 0
-3 -5 -7 -8 9 10 -12 13 -14 -15 0
-3 5 -7 -8 9 -10 11 12 -13 -15 0
-3 -5 -6 -8 9 10 12 -13 -15 0
-2 5 11 -16 17 0
-3 -7 -8 9 10 -11 12 14 -15 0
2 5 6 7 15 -17 19 -20 21 22 -31 0
-5 16 17 0
-2 5 11 15 -17 -20 -21 -24 0
-2 5 6 7 13 14 15 -17 19 -20 -22 -27 0
-14 15 -17 -20 -26 0
15 -17 19 -20 -26 0
5 6 7 11 13 14 15 -17 -19 -20 21 22 26 0
-14 18 20 0
-13 18 20 0
18 19 20 0
-6 18 20 0
-7 15 -17 -20 -26 0
-7 18 20 0
-2 6 7 -13 15 -17 -20 -25 0
-2 6 7 14 15 -17 -20 -25 0
-3 -6 -8 9 10 -11 -12 13 -14 -15 0
15 -17 -20 -21 -26 0
5 6 7 11 -13 15 -17 -20 21 22 24 0
2 5 6 7 15 -17 19 -20 21 22 32 -33 0
15 -17 -20 -22 -26 0
-2 5 -7 11 15 -17 -20 -24 0
15 -17 -20 -22 -23 0
6 7 13 14 -18 -19 20 0
-4 -7 -8 0
-2 5 6 7 -11 15 -17 -20 -21 0
5 6 7 11 13 -14 15 -17 -20 21 22 25 0
-3 5 6 7 -8 -9 -10 11 12 -13 -15 0
5 6 7 11 13 14 15 -17 19 -20 21 22 27 28 29 30 32 33 0
-3 5 6 7 -8 -9 -10 11 12 14 -15 0
2 5 6 7 -11 15 -17 -20 21 22 0
5 6 7 11 13 14 15 -17 19 -20 21 22 27 28 29 31 -32 0
2 5 6 7 15 -17 19 -20 21 22 -27 0
-13 15 -17 -20 -26 0
5 15 -17 -20 -23 0
5 6 7 11 13 14 15 -17 19 -20 21 22 27 28 29 30 -31 0
15 -17 -20 -21 -23 0
-2 5 6 7 13 14 15 -17 19 -20 -22 -29 0
2 5 6 7 15 -17 19 -20 21 22 -28 0
-11 15 -17 -20 -26 0
-2 5 6 7 13 14 15 -17 19 -20 -22 -30 -31 0
-2 6 7 15 -17 -20 -21 -25 0
-3 5 -6 -8 9 -10 11 12 14 -15 0
-2 6 7 15 -17 -20 -22 -25 0
-2 5 6 7 13 14 15 -17 19 -20 -21 -27 0
-2 5 6 7 11 13 14 15 -17 19 -20 27 -30 -31 -32 0
5 6 7 11 13 14 15 -17 19 -20 21 22 27 28 29 30 32 -33 0
-6 15 -17 -20 -26 0
2 5 6 7 -14 15 -17 -20 21 22 0
-2 5 6 7 13 14 15 -17 19 -20 -21 -28 0
-11 16 17 0
-3 5 -6 -8 9 -10 11 12 -13 -15 0
-2 5 6 7 11 13 14 15 -17 19 -20 27 -30 31 32 0
-3 -5 6 7 -8 -9 10 12 -13 -15 0
-2 5 6 7 13 14 15 -17 19 -20 -22 -28 0
2 16 17 0
-2 5 6 7 13 14 15 -17 19 -20 -21 -30 -31 0
-2 5 11 15 -17 -20 -22 -24 0
-2 5 6 7 13 14 15 -17 19 -20 -21 -29 0
3 15 0
-3 -5 6 7 -8 -9 10 12 14 -15 0
-3 -5 6 7 -8 -9 10 -12 13 -14 -15 0
2 5 6 7 15 -17 19 -20 21 22 -29 0
2 5 6 7 -13 15 -17 -20 21 22 0
-5 15 -17 -20 -26 0
-2 5 -6 11 15 -17 -20 -24 0
